100
1000
200
200
199
199
198
196
196
196
195
195
195
194
193
193
192
191
191
191
191
191
190
189
189
189
189
188
187
186
185
185
184
184
184
183
182
181
181
180
180
179
179
178
178
177
177
176
176
176
175
174
174
174
173
173
173
172
172
172
172
172
172
172
171
169
167
167
167
167
167
167
167
166
165
164
163
163
163
162
162
161
160
159
158
157
157
156
156
156
156
156
156
155
154
154
153
152
152
152
151
150
